min: 11 m11 + 10 m10 + 7 m7;

/* Standardize optimizations of max{0, ...} */
m11 >= y11_5 + y11_4 + y11_2;
m10 >= y10_5 + y10_4 + y10_2;
m7 >= -1 y11_4 + -1 y9_2 + y7_5 + y7_4;

/* Balance restrictions */
l2: y11_2 + y10_2 + y9_2 + y8_2 + y7_5 + y6_4 + y5_2 + 2 y4_2 + y3_2 >= 13;
l3: y8_5 + y7_4 + y5_2 + -1 y3_2 >= 0;
l4: y11_4 + y10_4 + y9_5 + 2 y8_4 + y7_4 + y6_4 + y5_4 + -1 y4_2 >= 9;
l5: y11_5 + 2 y10_5 + y9_5 + y8_5 + y7_5 + y6_5 + -1 y5_4 + -1 y5_2 >= 5;
l6: y11_5 + y10_4 + y8_2 + -1 y6_5 + -1 y6_4 >= 0;
l8: y10_2 + -1 y8_5 + -1 y8_4 + -1 y8_2 >= 0;
l9: y11_2 + -1 y9_5 + -1 y9_2 >= 0;

/* Container upper bounds */
c10: y10_5 + y10_4 + y10_2 <= 5;
c7: -1 y11_4 + -1 y9_2 + y7_5 + y7_4 <= 5;

int y10_2, y10_4, y10_5, y11_2, y11_4, y11_5, y3_2, y4_2, y5_2, y5_4, y6_4, y6_5, y7_4, y7_5, y8_2, y8_4, y8_5, y9_2, y9_5;
